(set-logic QF_BV)
(declare-fun _substvar_354_ () Bool)
(declare-fun _substvar_178_ () (_ BitVec 95))
(declare-fun _substvar_206_ () (_ BitVec 95))
(declare-fun _substvar_181_ () (_ BitVec 95))
(declare-fun _substvar_192_ () (_ BitVec 95))
(declare-fun _substvar_202_ () (_ BitVec 95))
(declare-fun _substvar_235_ () (_ BitVec 95))
(declare-fun _substvar_357_ () Bool)
(assert (and true true true true true true true true true true true true true true true true true true true true true true true true true true true true true true true true true true true true true true true true true true true true true true true true true true true true true true true true true true true true true true true true true true true true true true true true true true true true true (ite _substvar_357_ (= _substvar_178_ (_ bv0 95)) true) (ite _substvar_354_ (= _substvar_235_ (_ bv0 95)) (= _substvar_235_ (concat ((_ extract 93 0) _substvar_178_) (bvxor ((_ extract 94 94) _substvar_178_) ((_ extract 83 83) _substvar_178_))))) (= _substvar_202_ (concat ((_ extract 93 0) _substvar_235_) (_ bv0 1))) true true true true true true true true true true true true true true true true true true true true true true true true true true true true true true true true true true true true true true true true true true true true true true true true true true true true true true true true true true true true true true true true true true true true true true true true true true true true true (ite _substvar_357_ true (= _substvar_181_ (_ bv0 95))) (ite _substvar_354_ true (= _substvar_192_ (concat ((_ extract 93 0) _substvar_181_) (_ bv0 1)))) (= _substvar_206_ (concat ((_ extract 93 0) _substvar_192_) (_ bv0 1))) true true true true true true true true true true true true true true true true true true true true true true true true true true true true true true true true true true true true true true true true true true true true true true true true true true true true true true true true true true true true true true true true true true true true true true true true true true true true true true true true true true true true true true true true true true true true true true true true true true true true true true true true true true true true true true true true true true true true true true true true true true true true true true true true true true true true true true true true true true true true true true true true true true true true true true true true true true true true true true true true true true true true true true true true true true (= (or (= _substvar_202_ _substvar_206_) (= _substvar_202_ (_ bv0 95)) false (= _substvar_206_ (_ bv0 95)) false false) false)))
(check-sat)
(exit)
